NAME : rnd7_50.tsp
TYPE : TSP
DIMENSION : 50
EDGE_WEIGHT_TYPE : EUC_2D
NODE_COORD_SECTION
1 569 672
2 28 55
3 966 237
4 446 368
5 552 282
6 357 520
7 637 693
8 974 388
9 880 950
10 454 436
11 544 709
12 62 840
13 607 142
14 518 713
15 841 454
16 557 55
17 793 848
18 118 840
19 535 34
20 558 611
21 190 921
22 764 261
23 355 447
24 410 40
25 937 617
26 677 774
27 715 414
28 137 542
29 662 525
30 244 11
31 197 983
32 825 783
33 726 433
34 104 485
35 21 721
36 453 106
37 731 769
38 193 227
39 77 712
40 899 27
41 1 226
42 462 714
43 240 325
44 805 69
45 330 977
46 371 891
47 891 177
48 32 969
49 949 377
50 482 142
